Problem:    
Rows:       256
Columns:    89 (72 integer, 72 binary)
Non-zeros:  800
Status:     INTEGER OPTIMAL
Objective:  value = 4.273006 (MINimum)

   No.   Row name        Activity     Lower bound   Upper bound
------ ------------    ------------- ------------- -------------
     1 r.5                   4.27301             0               
     2 r.6                  -999.161      -999.322               
     3 r.7                   1004.27             0               
     4 r.8                   -998.62      -998.863               
     5 r.9                   1004.27             0               
     6 r.10                 -998.474      -999.197               
     7 r.11                  4.27301             0               
     8 r.12                  2.86758      -998.441               
     9 r.13                  4.27301             0               
    10 r.14                  2.86758      -998.986               
    11 r.15                  1004.27             0               
    12 r.16                 -997.132      -998.513               
    13 r.17                  1004.27             0               
    14 r.18                 -999.277      -999.437               
    15 r.19                  4.27301             0               
    16 r.20                  1.38024      -998.895               
    17 r.21                  1004.27             0               
    18 r.22                 -997.967      -999.493               
    19 r.23                  4.27301             0               
    20 r.24                 -998.943      -999.104               
    21 r.25                  1004.27             0               
    22 r.26                  -999.84       -999.84               
    23 r.27                  4.27301             0               
    24 r.28                   0.1603      -999.771               
    25 r.29                  1004.27             0               
    26 r.30                 -995.727       -997.76               
    27 r.31                  4.27301             0               
    28 r.32                  4.27301      -995.443               
    29 r.33                  4.27301             0               
    30 r.34                  4.27301      -998.955               
    31 r.35                  1004.27             0               
    32 r.36                 -995.727      -998.595               
    33 r.37                        1             1             = 
    34 r.38                        1             1             = 
    35 r.39                        1             1             = 
    36 r.40                        1             1             = 
    37 r.41                        1             1             = 
    38 r.42                        1             1             = 
    39 r.43                        1             1             = 
    40 r.44                        1             1             = 
    41 r.45                     1001             2               
    42 r.46                    -1001         -1001               
    43 r.47                  3000.69      -999.197               
    44 r.48                     1001             2               
    45 r.49                    -1001         -1001               
    46 r.50                  2001.49      -998.441               
    47 r.51                     1000             2               
    48 r.52                    -1000         -1001               
    49 r.53                  3002.03      -998.986               
    50 r.54                        2             2               
    51 r.55                       -2         -1001               
    52 r.56                 -998.513      -998.513               
    53 r.57                     1001             2               
    54 r.58                    -1001         -1001               
    55 r.59                  2999.88      -999.437               
    56 r.60                     1001             2               
    57 r.61                    -1001         -1001               
    58 r.62                     2000      -998.895               
    59 r.63                     1001             2               
    60 r.64                    -1001         -1001               
    61 r.65                  3001.19      -999.493               
    62 r.66                     1001             2               
    63 r.67                    -1001         -1001               
    64 r.68                  999.676      -999.104               
    65 r.69                 -999.322      -999.322               
    66 r.70                  -998.78      -998.863               
    67 r.71                 -999.322      -999.322               
    68 r.72                  -998.78      -998.863               
    69 r.73                   3.4343       -997.76               
    70 r.74                  1003.43      -995.443               
    71 r.75                 -997.107       -997.76               
    72 r.76                  2.89276      -995.443               
    73 r.77                     1000             2               
    74 r.78                    -1000         -1001               
    75 r.79                  3003.43      -998.955               
    76 r.80                        2             2               
    77 r.81                       -2         -1001               
    78 r.82                 -997.107      -998.595               
    79 r.83                     1001             2               
    80 r.84                    -1001         -1001               
    81 r.85                  999.312      0.678411               
    82 r.86                     1001             2               
    83 r.87                    -1001         -1001               
    84 r.88                  1998.51       1.13723               
    85 r.89                     1001             2               
    86 r.90                    -1001         -1001               
    87 r.91                  2001.34      -998.986               
    88 r.92                     1001             2               
    89 r.93                    -1001         -1001               
    90 r.94                     2000      -998.513               
    91 r.95                        2             2               
    92 r.96                       -2         -1001               
    93 r.97                -0.803222      -999.437               
    94 r.98                     1000             2               
    95 r.99                    -1000         -1001               
    96 r.100                 1998.51      -998.895               
    97 r.101                       2             2               
    98 r.102                      -2         -1001               
    99 r.103                -999.493      -999.493               
   100 r.104                    1000             2               
   101 r.105                   -1000         -1001               
   102 r.106                 998.189      -999.104               
   103 r.107                -998.634      -999.197               
   104 r.108                 2.70728      -998.441               
   105 r.109                -998.634      -999.197               
   106 r.110                 2.70728      -998.441               
   107 r.111                       2             2               
   108 r.112                      -2         -1001               
   109 r.113                -997.253       -997.76               
   110 r.114                    1000             2               
   111 r.115                   -1000         -1001               
   112 r.116                 2001.41      -995.443               
   113 r.117                 2.74678      -998.955               
   114 r.118                -997.253      -998.595               
   115 r.119                 1.40543      -998.955               
   116 r.120                -998.595      -998.595               
   117 r.121                    1000             2               
   118 r.122                   -1000         -1001               
   119 r.123                 997.971      0.678411               
   120 r.124                       2             2               
   121 r.125                      -2         -1001               
   122 r.126                 998.513       1.13723               
   123 r.127                    1001             2               
   124 r.128                   -1001         -1001               
   125 r.129                 1998.66      0.803222               
   126 r.130                    1001             2               
   127 r.131                   -1001         -1001               
   128 r.132                    2000       1.55903               
   129 r.133                 2.14458      -998.986               
   130 r.134                -997.855      -998.513               
   131 r.135                 1.48734      -998.986               
   132 r.136                -998.513      -998.513               
   133 r.137                    1001             2               
   134 r.138                   -1001         -1001               
   135 r.139                 1999.17      -999.493               
   136 r.140                    1001             2               
   137 r.141                   -1001         -1001               
   138 r.142                 998.189      -999.104               
   139 r.143                 2.70728      -998.986               
   140 r.144                -997.293      -998.513               
   141 r.145                 2.70728      -998.986               
   142 r.146                -997.293      -998.513               
   143 r.147                    1001             2               
   144 r.148                   -1001         -1001               
   145 r.149                 2001.41       -997.76               
   146 r.150                    1001             2               
   147 r.151                   -1001         -1001               
   148 r.152                 2001.41      -995.443               
   149 r.153                 1.40543      -998.955               
   150 r.154                -998.595      -998.595               
   151 r.155                 1.40543      -998.955               
   152 r.156                -998.595      -998.595               
   153 r.157                    1001             2               
   154 r.158                   -1001         -1001               
   155 r.159                 1000.12      0.678411               
   156 r.160                    1001             2               
   157 r.161                   -1001         -1001               
   158 r.162                    2000       1.13723               
   159 r.163                       2             2               
   160 r.164                      -2         -1001               
   161 r.165                0.803222      0.803222               
   162 r.166                    1000             2               
   163 r.167                   -1000         -1001               
   164 r.168                 2001.49       1.55903               
   165 r.169                       2             2               
   166 r.170                      -2         -1001               
   167 r.171                 -998.69      -999.493               
   168 r.172                    1000             2               
   169 r.173                   -1000         -1001               
   170 r.174                 999.676      -999.104               
   171 r.175                -999.437      -999.437               
   172 r.176                 1.21994      -998.895               
   173 r.177                -999.437      -999.437               
   174 r.178                 1.21994      -998.895               
   175 r.179                       2             2               
   176 r.180                      -2         -1001               
   177 r.181                 -996.45       -997.76               
   178 r.182                    1000             2               
   179 r.183                   -1000         -1001               
   180 r.184                 2002.89      -995.443               
   181 r.185                 3.55001      -998.955               
   182 r.186                 -996.45      -998.595               
   183 r.187                 2.89276      -998.955               
   184 r.188                -997.107      -998.595               
   185 r.189                    1001             2               
   186 r.190                   -1001         -1001               
   187 r.191                 998.806      0.678411               
   188 r.192                    1001             2               
   189 r.193                   -1001         -1001               
   190 r.194                 3000.32       1.13723               
   191 r.195                       2             2               
   192 r.196                      -2         -1001               
   193 r.197                 999.493      0.803222               
   194 r.198                    1000             2               
   195 r.199                   -1000         -1001               
   196 r.200                 3001.81       1.55903               
   197 r.201                    1001             2               
   198 r.202                   -1001         -1001               
   199 r.203                 2000.83        1.0138               
   200 r.204                    1001             2               
   201 r.205                   -1001         -1001               
   202 r.206                 3001.81       1.48734               
   203 r.207                       2             2               
   204 r.208                      -2         -1001               
   205 r.209                  998.69        0.5627               
   206 r.210                    1000             2               
   207 r.211                   -1000         -1001               
   208 r.212                 3000.32       1.10548               
   209 r.213                -998.127      -999.493               
   210 r.214                -999.104      -999.104               
   211 r.215                -998.127      -999.493               
   212 r.216                -999.104      -999.104               
   213 r.217                 -997.76       -997.76               
   214 r.218                 2.23981      -995.443               
   215 r.219                 3.21631       -997.76               
   216 r.220                 1003.22      -995.443               
   217 r.221                 2.23981      -998.955               
   218 r.222                 -997.76      -998.595               
   219 r.223                 1003.22      -998.955               
   220 r.224                 3.21631      -998.595               
   221 r.225                       2             2               
   222 r.226                      -2         -1001               
   223 r.227                 997.253      0.803222               
   224 r.228                    1000             2               
   225 r.229                   -1000         -1001               
   226 r.230                 1998.59       1.55903               
   227 r.231                    1001             2               
   228 r.232                   -1001         -1001               
   229 r.233                 1998.59        1.0138               
   230 r.234                    1001             2               
   231 r.235                   -1001         -1001               
   232 r.236                 1998.59       1.48734               
   233 r.237                       2             2               
   234 r.238                      -2         -1001               
   235 r.239                  996.45        0.5627               
   236 r.240                    1000             2               
   237 r.241                   -1000         -1001               
   238 r.242                 1997.11       1.10548               
   239 r.243                    1001             2               
   240 r.244                   -1001         -1001               
   241 r.245                    2000      -998.955               
   242 r.246                    1001             2               
   243 r.247                   -1001         -1001               
   244 r.248                    2000      -998.595               
   245 r.249                    1000             2               
   246 r.250                   -1000         -1001               
   247 r.251                 996.566      0.678411               
   248 r.252                       2             2               
   249 r.253                      -2         -1001               
   250 r.254                 997.107       1.13723               
   251 r.255                    1001             2               
   252 r.256                   -1001         -1001               
   253 r.257                    2000       2.23981               
   254 r.258                    1001             2               
   255 r.259                   -1001         -1001               
   256 r.260                    2000       4.55736               

   No. Column name       Activity     Lower bound   Upper bound
------ ------------    ------------- ------------- -------------
     1 tt                    4.27301             0               
     2 s_1_1        *              0             0             1 
     3 t_1_1                 1003.43             0               
     4 s_1_7        *              1             0             1 
     5 s_2_1        *              1             0             1 
     6 t_2_1                 2.89276             0               
     7 s_2_7        *              0             0             1 
     8 s_1_2        *              1             0             1 
     9 t_1_2                 2.74678             0               
    10 s_1_8        *              0             0             1 
    11 s_2_2        *              0             0             1 
    12 t_2_2                 1.40543             0               
    13 s_2_8        *              1             0             1 
    14 s_1_3        *              0             0             1 
    15 t_1_3                 1.40543             0               
    16 s_2_3        *              1             0             1 
    17 t_2_3                 1.40543             0               
    18 s_1_4        *              1             0             1 
    19 t_1_4                 3.55001             0               
    20 s_2_4        *              0             0             1 
    21 t_2_4                 2.89276             0               
    22 s_1_5        *              1             0             1 
    23 t_1_5                 2.23981             0               
    24 s_2_5        *              0             0             1 
    25 t_2_5                 1003.22             0               
    26 s_1_6        *              1             0             1 
    27 t_1_6                 4.11271             0               
    28 s_2_6        *              0             0             1 
    29 t_2_6                 4.11271             0               
    30 t_1_7                       0             0               
    31 t_2_7                       0             0               
    32 t_1_8                       0             0               
    33 t_2_8                       0             0               
    34 r_1_1_2      *              1             0             1 
    35 u_1_1_2      *              0             0             1 
    36 r_2_1_2      *              1             0             1 
    37 u_2_1_2      *              0             0             1 
    38 r_1_1_3      *              1             0             1 
    39 u_1_1_3      *              0             0             1 
    40 r_2_1_3      *              0             0             1 
    41 u_2_1_3      *              1             0             1 
    42 r_1_1_4      *              1             0             1 
    43 u_1_1_4      *              0             0             1 
    44 r_2_1_4      *              1             0             1 
    45 u_2_1_4      *              0             0             1 
    46 r_1_1_5      *              1             0             1 
    47 u_1_1_5      *              0             0             1 
    48 r_2_1_5      *              1             0             1 
    49 u_2_1_5      *              0             0             1 
    50 r_1_1_8      *              1             0             1 
    51 u_1_1_8      *              0             0             1 
    52 r_2_1_8      *              0             0             1 
    53 u_2_1_8      *              1             0             1 
    54 r_1_2_3      *              1             0             1 
    55 u_1_2_3      *              0             0             1 
    56 r_2_2_3      *              1             0             1 
    57 u_2_2_3      *              0             0             1 
    58 r_1_2_4      *              0             0             1 
    59 u_1_2_4      *              0             0             1 
    60 r_2_2_4      *              1             0             1 
    61 u_2_2_4      *              0             0             1 
    62 r_1_2_5      *              0             0             1 
    63 u_1_2_5      *              1             0             1 
    64 r_2_2_5      *              1             0             1 
    65 u_2_2_5      *              0             0             1 
    66 r_1_2_7      *              0             0             1 
    67 u_1_2_7      *              1             0             1 
    68 r_2_2_7      *              1             0             1 
    69 u_2_2_7      *              0             0             1 
    70 r_1_3_5      *              1             0             1 
    71 u_1_3_5      *              0             0             1 
    72 r_2_3_5      *              1             0             1 
    73 u_2_3_5      *              0             0             1 
    74 r_1_3_7      *              1             0             1 
    75 u_1_3_7      *              0             0             1 
    76 r_2_3_7      *              1             0             1 
    77 u_2_3_7      *              0             0             1 
    78 r_1_4_5      *              0             0             1 
    79 u_1_4_5      *              1             0             1 
    80 r_2_4_5      *              1             0             1 
    81 u_2_4_5      *              0             0             1 
    82 r_1_4_7      *              0             0             1 
    83 u_1_4_7      *              1             0             1 
    84 r_2_4_7      *              1             0             1 
    85 u_2_4_7      *              0             0             1 
    86 r_1_7_8      *              1             0             1 
    87 u_1_7_8      *              0             0             1 
    88 r_2_7_8      *              1             0             1 
    89 u_2_7_8      *              0             0             1 

Integer feasibility conditions:

KKT.PE: max.abs.err = 2.27e-13 on row 46
        max.rel.err = 5.68e-17 on row 125
        High quality

KKT.PB: max.abs.err = 0.00e+00 on row 0
        max.rel.err = 0.00e+00 on row 0
        High quality

End of output
